qbf_easy_train/easy_4776_SAT.qdimacs
p cnf 24 58
a 4 6 22 0
e 1 2 3 5 7 8 9 10 11 12 13 14 15 16 17 18 19 20 21 23 24 0
1 -2 -3 0
-1 2 -3 0
1 2 3 0
-1 -2 3 0
-4 2 -5 0
4 -2 -5 0
-4 -2 5 0
4 2 5 0
6 3 0
6 5 0
-3 -5 -6 0
-8 -6 0
-8 -7 0
6 7 8 0
10 -9 0
10 4 0
9 -4 -10 0
-11 -9 -12 0
11 9 -12 0
-11 9 12 0
11 -9 12 0
-13 -10 0
-13 12 0
10 -12 13 0
-14 8 0
-14 -13 0
-8 13 14 0
9 -1 -15 0
-9 1 -15 0
9 1 15 0
-9 -1 15 0
-16 -7 0
-16 15 0
7 -15 16 0
17 6 0
17 3 0
-6 -3 -17 0
-18 16 0
-18 17 0
-16 -17 18 0
19 -14 0
19 18 0
14 -18 -19 0
-22 -20 0
-22 -21 0
20 21 22 0
23 -3 0
23 22 0
3 -22 -23 0
24 19 0
24 -23 0
-19 23 -24 0
9 -6 -19 24 16 0
-4 17 -24 12 -7 21 0
-10 -15 -8 23 16 0
18 21 10 -15 8 0
-11 -3 -18 4 15 -19 0
24 0
