sat_easy_train/easy_4776_SAT.dimacs
p cnf 119 393
3 -1 0
3 -2 0
1 2 -3 0
-3 4 0
3 4 0
-5 -6 -7 0
5 6 -7 0
-5 6 7 0
5 -6 7 0
7 -8 -9 0
-7 8 -9 0
7 8 9 0
-7 -8 9 0
-11 -5 0
-11 -10 0
5 10 11 0
-12 9 0
-12 -11 0
-9 11 12 0
-4 -12 -13 0
4 12 -13 0
-4 12 13 0
4 -12 13 0
-14 1 -15 0
14 -1 -15 0
-14 -1 15 0
14 1 15 0
16 15 0
16 -6 0
-15 6 -16 0
18 16 0
18 17 0
-16 -17 -18 0
-19 13 0
-19 18 0
-13 -18 19 0
20 -15 0
20 2 0
15 -2 -20 0
-10 -20 -21 0
10 20 -21 0
-10 20 21 0
10 -20 21 0
22 -21 0
22 5 0
21 -5 -22 0
23 -8 0
23 -11 0
8 11 -23 0
24 -22 0
24 -23 0
22 23 -24 0
3 -5 -26 0
-3 5 -26 0
3 5 26 0
-3 -5 26 0
-25 26 -27 0
25 -26 -27 0
-25 -26 27 0
25 26 27 0
27 17 -28 0
-27 -17 -28 0
27 -17 28 0
-27 17 28 0
26 28 -29 0
-26 -28 -29 0
26 -28 29 0
-26 28 29 0
-30 27 0
-30 29 0
-27 -29 30 0
31 -32 -33 0
-31 32 -33 0
31 32 33 0
-31 -32 33 0
-34 33 0
-34 6 0
-33 -6 34 0
35 -30 0
35 -34 0
30 34 -35 0
5 31 -37 0
-5 -31 -37 0
5 -31 37 0
-5 31 37 0
36 37 -38 0
-36 -37 -38 0
36 -37 38 0
-36 37 38 0
39 -35 0
39 -38 0
35 38 -39 0
-40 -24 0
-40 39 0
24 -39 40 0
31 -8 -42 0
-31 8 -42 0
31 8 42 0
-31 -8 42 0
43 42 0
43 -6 0
-42 6 -43 0
-44 -41 0
-44 -43 0
41 43 44 0
45 5 0
45 -33 0
-5 33 -45 0
43 37 -46 0
-43 -37 -46 0
43 -37 46 0
-43 37 46 0
-48 -47 0
-48 31 0
47 -31 48 0
-49 16 0
-49 48 0
-16 -48 49 0
50 26 0
50 -49 0
-26 49 -50 0
51 10 -52 0
-51 -10 -52 0
51 -10 52 0
-51 10 52 0
16 43 -53 0
-16 -43 -53 0
16 -43 53 0
-16 43 53 0
-54 -53 0
-54 8 0
53 -8 54 0
-55 -52 0
-55 -54 0
52 54 55 0
-56 50 0
-56 55 0
-50 -55 56 0
-57 46 0
-57 56 0
-46 -56 57 0
-58 33 0
-58 -21 0
-33 21 58 0
-59 57 0
-59 58 0
-57 -58 59 0
-60 -45 0
-60 59 0
45 -59 60 0
61 8 0
61 42 0
-8 -42 -61 0
62 -60 0
62 -61 0
60 61 -62 0
63 -14 0
63 -32 0
14 32 -63 0
64 -41 0
64 -63 0
41 63 -64 0
-65 -31 0
-65 54 0
31 -54 65 0
66 65 0
66 14 0
-65 -14 -66 0
-64 -66 -67 0
64 66 -67 0
-64 66 67 0
64 -66 67 0
68 62 0
68 67 0
-62 -67 -68 0
69 44 0
69 68 0
-44 -68 -69 0
40 69 -70 0
-40 -69 -70 0
40 -69 70 0
-40 69 70 0
-71 -19 0
-71 -70 0
19 70 71 0
-72 -25 0
-72 -27 0
25 27 72 0
73 27 0
73 -72 0
-27 72 -73 0
-74 -1 0
-74 32 0
1 -32 74 0
75 -73 0
75 -74 0
73 74 -75 0
76 32 0
76 28 0
-32 -28 -76 0
-77 14 0
-77 5 0
-14 -5 77 0
78 76 0
78 77 0
-76 -77 -78 0
79 -78 0
79 48 0
78 -48 -79 0
80 75 0
80 79 0
-75 -79 -80 0
-81 -16 0
-81 32 0
16 -32 81 0
80 81 -82 0
-80 -81 -82 0
80 -81 82 0
-80 81 82 0
83 -37 0
83 -42 0
37 42 -83 0
84 14 0
84 -47 0
-14 47 -84 0
-85 -42 0
-85 84 0
42 -84 85 0
86 -16 0
86 31 0
16 -31 -86 0
85 -86 -87 0
-85 86 -87 0
85 86 87 0
-85 -86 87 0
8 41 -88 0
-8 -41 -88 0
8 -41 88 0
-8 41 88 0
89 -16 0
89 88 0
16 -88 -89 0
90 87 0
90 -89 0
-87 89 -90 0
-83 90 -91 0
83 -90 -91 0
-83 -90 91 0
83 90 91 0
-82 91 -92 0
82 -91 -92 0
-82 -91 92 0
82 91 92 0
84 -65 -93 0
-84 65 -93 0
84 65 93 0
-84 -65 93 0
-93 15 -94 0
93 -15 -94 0
-93 -15 94 0
93 15 94 0
95 92 0
95 -94 0
-92 94 -95 0
21 -20 -96 0
-21 20 -96 0
21 20 96 0
-21 -20 96 0
97 27 0
97 15 0
-27 -15 -97 0
98 53 0
98 -97 0
-53 97 -98 0
-99 -96 0
-99 98 0
96 -98 99 0
100 -15 0
100 49 0
15 -49 -100 0
-101 1 0
-101 -48 0
-1 48 101 0
-102 -101 0
-102 48 0
101 -48 102 0
-103 100 0
-103 -102 0
-100 102 103 0
-105 48 0
-105 -104 0
-48 104 105 0
105 42 -106 0
-105 -42 -106 0
105 -42 106 0
-105 42 106 0
88 -49 -107 0
-88 49 -107 0
88 49 107 0
-88 -49 107 0
108 -107 0
108 -49 0
107 49 -108 0
48 -108 -109 0
-48 108 -109 0
48 108 109 0
-48 -108 109 0
-106 -109 -110 0
106 109 -110 0
-106 109 110 0
106 -109 110 0
-111 -97 0
-111 -104 0
97 104 111 0
-110 111 -112 0
110 -111 -112 0
-110 -111 112 0
110 111 112 0
113 -103 0
113 112 0
103 -112 -113 0
15 11 -114 0
-15 -11 -114 0
15 -11 114 0
-15 11 114 0
-108 114 -115 0
108 -114 -115 0
-108 -114 115 0
108 114 115 0
116 113 0
116 115 0
-113 -115 -116 0
117 99 0
117 116 0
-99 -116 -117 0
-118 95 0
-118 -117 0
-95 117 118 0
119 71 0
119 -118 0
-71 118 -119 0
114 73 26 23 0
-57 -29 114 -50 80 93 0
61 -52 -95 0
-63 29 0
36 -84 104 111 99 118 0
-13 -52 0
-7 -75 0
18 -64 -37 -21 77 66 0
-56 -114 0
-106 -107 15 -29 -112 0
67 -106 119 -72 -75 20 0
88 -1 -30 -48 3 -99 0
106 14 -111 75 0
-78 -25 0
94 -108 0
-54 -44 59 19 0
-98 -95 -93 -9 39 0
90 -36 0
89 95 85 0
50 -78 41 -87 0
104 46 26 -96 25 0
28 -59 -85 -9 0
-107 -16 0
-26 112 -95 -68 0
103 -67 0
70 89 -32 -42 115 0
73 -119 -9 45 14 0
3 -29 -10 -85 18 0
-42 -51 0
59 -64 0
-4 -81 -53 -85 -26 0
-90 20 -27 -31 77 92 0
86 82 87 40 -72 77 0
70 111 -118 0
103 4 5 22 -45 0
112 59 -37 -16 0
81 9 111 4 -94 -91 0
101 15 102 -81 29 28 0
67 -28 92 55 66 0
-76 -11 22 -69 71 0
78 2 -10 0
8 -32 24 101 -57 -115 0
-89 -16 -54 0
1 111 19 0
-57 12 36 -47 95 0
-53 -43 0
72 -71 37 0
-9 48 53 15 105 30 0
105 -16 43 -58 -73 0
-27 82 0
-89 -85 99 -35 0
119 0
